c instance by G2
c solution = 00101010110
c Known solution cost is 499 
p cnf 11 30
w 78 17 74 23 37 70 11 34 85 29 41
6 2 5 0
-9 1 -8 0
-8 11 6 0
-2 7 -10 0
-8 10 4 0
-4 8 7 0
8 4 3 0
-6 -9 -5 0
6 7 -3 0
4 -6 -2 0
-3 -7 -6 0
9 1 2 0
9 3 4 0
-6 -9 5 0
4 9 7 0
10 -9 -8 0
-4 -9 -1 0
-11 -5 6 0
-11 2 -3 0
2 9 11 0
-2 4 8 0
4 -1 -7 0
1 8 -2 0
9 4 -3 0
6 -5 -4 0
-6 -8 -4 0
9 11 -2 0
-8 4 6 0
-2 10 3 0
11 -9 10 0
